
(set-logic ALL) 

(declare-datatype MyList ((Nil) (Cons (head Real) (tail MyList)) )) 
(declare-fun l0 () MyList) 
(declare-fun l1 () MyList) 
(declare-fun l2 () MyList) 
(declare-fun l3 () MyList) 
(declare-fun i0 () Real) 
(declare-fun i1 () Real) 
(assert (or (is-Nil Nil) (= l3 Nil) (is-Cons l2) (= l3 l0)) )
(assert (and (is-Cons l1) (is-Nil Nil) (is-Nil Nil)) )
(assert (not (= l1 Nil)) )
(assert (is-Nil Nil) )
(assert (and (is-Cons Nil) (= l0 l3)) )
(assert (not (is-Cons Nil)) )
(assert (is-Cons Nil) )
(assert (not (= l1 Nil)) )
(check-sat)
